Maximize

x_0_0 + x_0_1 + x_1_0 + x_1_1 + x_2_0 + x_2_1 + x_3_0 + x_3_1 + x_4_0 + x_4_1 + x_5_0 + x_5_1 + x_6_0 + x_6_1 + x_7_0 + x_7_1 + x_8_0 + x_8_1 + x_9_0 + x_9_1 + x_10_0 + x_10_1 + x_11_0 + x_11_1 + x_12_0 + x_12_1 + x_13_0 + x_13_1 + x_14_0 + x_14_1


Subject To

a0: x_0_0 + x_0_1 <= 1
a1: x_1_0 + x_1_1 <= 1
a2: x_2_0 + x_2_1 <= 1
a3: x_3_0 + x_3_1 <= 1
a4: x_4_0 + x_4_1 <= 1
a5: x_5_0 + x_5_1 <= 1
a6: x_6_0 + x_6_1 <= 1
a7: x_7_0 + x_7_1 <= 1
a8: x_8_0 + x_8_1 <= 1
a9: x_9_0 + x_9_1 <= 1
a10: x_10_0 + x_10_1 <= 1
a11: x_11_0 + x_11_1 <= 1
a12: x_12_0 + x_12_1 <= 1
a13: x_13_0 + x_13_1 <= 1
a14: x_14_0 + x_14_1 <= 1
b0: 20 x_0_0 <= 15
b1: 20 x_0_1 <= 20
b2: 19 x_1_0 <= 15
b3: 19 x_1_1 <= 20
b4: 18 x_2_0 <= 15
b5: 18 x_2_1 <= 20
b6: 17 x_3_0 <= 15
b7: 17 x_3_1 <= 20
b8: 16 x_4_0 <= 15
b9: 16 x_4_1 <= 20
b10: 15 x_5_0 <= 15
b11: 15 x_5_1 <= 20
b12: 14 x_6_0 <= 15
b13: 14 x_6_1 <= 20
b14: 13 x_7_0 <= 15
b15: 13 x_7_1 <= 20
b16: 12 x_8_0 <= 15
b17: 12 x_8_1 <= 20
b18: 11 x_9_0 <= 15
b19: 11 x_9_1 <= 20
b20: 10 x_10_0 <= 15
b21: 10 x_10_1 <= 20
b22: 9 x_11_0 <= 15
b23: 9 x_11_1 <= 20
b24: 8 x_12_0 <= 15
b25: 8 x_12_1 <= 20
b26: 7 x_13_0 <= 15
b27: 7 x_13_1 <= 20
b28: 6 x_14_0 <= 15
b29: 6 x_14_1 <= 20
c0: 20 x_0_0 + 19 x_1_0 + 18 x_2_0 + 17 x_3_0 + 16 x_4_0 + 15 x_5_0 + 14 x_6_0 + 13 x_7_0 + 12 x_8_0 + 11 x_9_0 + 10 x_10_0 + 9 x_11_0 + 8 x_12_0 + 7 x_13_0 + 6 x_14_0 <= 80
c1: 20 x_0_1 + 19 x_1_1 + 18 x_2_1 + 17 x_3_1 + 16 x_4_1 + 15 x_5_1 + 14 x_6_1 + 13 x_7_1 + 12 x_8_1 + 11 x_9_1 + 10 x_10_1 + 9 x_11_1 + 8 x_12_1 + 7 x_13_1 + 6 x_14_1 <= 60




Binary

x_0_0 x_0_1 x_1_0 x_1_1 x_2_0 x_2_1 x_3_0 x_3_1 x_4_0 x_4_1 x_5_0 x_5_1 x_6_0 x_6_1 x_7_0 x_7_1 x_8_0 x_8_1 x_9_0 x_9_1 x_10_0 x_10_1 x_11_0 x_11_1 x_12_0 x_12_1 x_13_0 x_13_1 x_14_0 x_14_1

 


End
